NAME : lin105.42806.tour
COMMENT : Cost = 6378_42806
COMMENT : Found by LKH [Keld Helsgaun] Thu Nov 16 17:33:47 2017
TYPE : TOUR
DIMENSION : 124
TOUR_SECTION
1
2
124
24
27
36
42
66
88
95
94
87
65
61
60
37
19
121
31
45
48
50
55
56
64
72
77
79
86
93
102
101
97
96
92
91
85
84
83
82
78
71
68
67
59
49
40
32
122
30
104
44
47
51
54
57
105
73
76
80
89
98
99
90
81
75
74
69
70
63
62
58
53
52
46
43
41
28
120
9
5
4
13
14
34
35
38
39
26
25
18
17
16
123
33
100
119
23
118
29
117
20
116
22
115
8
114
21
113
103
112
12
111
15
110
11
109
3
108
10
107
7
106
6
-1
EOF
